0 1
0 2
0 3
0 4
0 5
0 6
0 7
0 8
0 9
0 11
0 12
0 13
0 14
0 15
0 16
0 17
0 18
0 20
0 21
0 22
0 23
0 24
0 25
0 26
0 27
0 28
0 29
0 30
0 31
0 34
0 35
0 36
0 37
0 38
0 39
0 40
0 42
0 61
0 95
0 99
0 106
0 119
0 122
0 131
0 132
0 145
0 185
0 192
0 199
0 229
0 234
0 265
1 2
1 3
1 4
1 5
1 6
1 7
1 8
1 9
1 11
1 12
1 13
1 14
1 15
1 16
1 17
1 18
1 20
1 21
1 22
1 23
1 24
1 25
1 26
1 27
1 28
1 29
1 30
1 31
1 34
1 35
1 36
1 37
1 38
1 39
1 42
1 61
1 89
1 110
1 220
1 232
1 246
1 266
1 360
1 375
1 484
1 777
2 3
2 4
2 5
2 6
2 7
2 8
2 9
2 11
2 12
2 13
2 14
2 15
2 16
2 17
2 18
2 20
2 21
2 22
2 23
2 24
2 25
2 26
2 27
2 28
2 29
2 30
2 31
2 34
2 35
2 36
2 37
2 38
2 39
2 40
2 42
2 61
2 66
2 112
2 132
2 144
2 145
2 166
2 192
2 199
2 209
2 210
2 231
2 265
2 286
2 343
2 382
2 390
2 545
2 905
3 4
3 5
3 6
3 7
3 8
3 9
3 11
3 12
3 13
3 14
3 15
3 16
3 17
3 18
3 20
3 21
3 22
3 23
3 24
3 25
3 26
3 27
3 28
3 29
3 30
3 31
3 34
3 35
3 36
3 37
3 38
3 39
3 40
3 42
3 61
3 114
3 209
3 231
3 246
3 252
3 286
4 5
4 6
4 7
4 8
4 9
4 11
4 12
4 13
4 14
4 15
4 16
4 17
4 18
4 20
4 21
4 22
4 23
4 24
4 25
4 26
4 27
4 28
4 29
4 30
4 31
4 34
4 35
4 36
4 37
4 38
4 39
4 42
4 61
4 91
4 94
4 105
4 114
4 232
5 6
5 7
5 8
5 9
5 11
5 12
5 13
5 14
5 15
5 16
5 17
5 18
5 20
5 21
5 22
5 23
5 24
5 25
5 26
5 27
5 28
5 29
5 30
5 31
5 33
5 34
5 35
5 36
5 37
5 38
5 39
5 42
5 61
5 95
5 99
5 104
5 106
5 112
5 122
5 144
5 296
5 641
5 668
6 7
6 8
6 9
6 11
6 12
6 13
6 14
6 15
6 16
6 17
6 18
6 20
6 21
6 22
6 23
6 24
6 25
6 26
6 27
6 28
6 29
6 30
6 31
6 34
6 35
6 36
6 37
6 38
6 39
6 40
6 42
6 61
6 99
6 106
6 119
6 122
6 132
6 145
6 185
6 192
6 199
6 209
6 231
6 286
7 8
7 9
7 11
7 12
7 13
7 14
7 15
7 16
7 17
7 18
7 20
7 21
7 22
7 23
7 24
7 25
7 26
7 27
7 28
7 29
7 30
7 31
7 34
7 35
7 36
7 37
7 38
7 39
7 42
7 61
7 89
7 95
7 106
7 131
7 229
7 232
7 234
7 322
7 360
7 484
7 777
8 9
8 11
8 12
8 13
8 14
8 15
8 16
8 17
8 18
8 20
8 21
8 22
8 23
8 24
8 25
8 26
8 27
8 28
8 29
8 30
8 31
8 34
8 35
8 36
8 37
8 38
8 39
8 40
8 42
8 61
8 145
8 166
8 169
8 209
8 231
8 252
8 286
8 382
8 555
9 11
9 12
9 13
9 14
9 15
9 16
9 17
9 18
9 20
9 21
9 22
9 23
9 24
9 25
9 26
9 27
9 28
9 29
9 30
9 31
9 34
9 35
9 36
9 37
9 38
9 39
9 42
9 61
9 99
9 106
9 122
9 131
10 19
10 41
10 43
10 44
10 45
10 46
10 47
10 48
10 49
10 50
10 51
10 52
10 53
10 54
10 55
10 56
10 57
10 58
10 59
10 60
10 62
10 63
10 64
10 65
10 67
10 69
10 70
10 71
10 72
10 74
10 75
10 76
10 77
10 78
10 79
10 80
10 86
10 87
10 88
10 90
10 92
10 103
10 130
10 195
10 240
10 249
10 299
10 394
10 397
10 402
10 441
10 453
10 465
10 737
11 12
11 13
11 14
11 15
11 16
11 17
11 18
11 20
11 21
11 22
11 23
11 24
11 25
11 26
11 27
11 28
11 29
11 30
11 31
11 34
11 35
11 36
11 37
11 38
11 39
11 40
11 42
11 61
11 109
11 209
11 231
11 284
11 286
12 13
12 14
12 15
12 16
12 17
12 18
12 20
12 21
12 22
12 23
12 24
12 25
12 26
12 27
12 28
12 29
12 30
12 31
12 34
12 35
12 36
12 37
12 38
12 39
12 40
12 42
12 61
12 199
12 209
12 231
12 286
13 14
13 15
13 16
13 17
13 18
13 20
13 21
13 22
13 23
13 24
13 25
13 26
13 27
13 28
13 29
13 30
13 31
13 34
13 35
13 36
13 37
13 38
13 39
13 40
13 42
13 61
13 199
13 209
13 231
13 284
13 286
14 15
14 16
14 17
14 18
14 20
14 21
14 22
14 23
14 24
14 25
14 26
14 27
14 28
14 29
14 30
14 31
14 34
14 35
14 36
14 37
14 38
14 39
14 40
14 42
14 61
14 131
14 132
14 192
15 16
15 17
15 18
15 20
15 21
15 22
15 23
15 24
15 25
15 26
15 27
15 28
15 29
15 30
15 31
15 34
15 35
15 36
15 37
15 38
15 39
15 42
15 61
15 252
15 469
15 703
16 17
16 18
16 20
16 21
16 22
16 23
16 24
16 25
16 26
16 27
16 28
16 29
16 30
16 31
16 34
16 35
16 36
16 37
16 38
16 39
16 42
16 61
16 73
16 91
16 197
16 220
16 485
17 18
17 20
17 21
17 22
17 23
17 24
17 25
17 26
17 27
17 28
17 29
17 30
17 31
17 34
17 35
17 36
17 37
17 38
17 39
17 42
17 61
17 392
17 776
18 20
18 21
18 22
18 23
18 24
18 25
18 26
18 27
18 28
18 29
18 30
18 31
18 34
18 35
18 36
18 37
18 38
18 39
18 42
18 61
18 99
18 122
19 41
19 43
19 44
19 45
19 46
19 47
19 48
19 49
19 50
19 51
19 52
19 53
19 54
19 55
19 56
19 57
19 58
19 59
19 60
19 62
19 63
19 64
19 65
19 67
19 69
19 70
19 71
19 72
19 74
19 75
19 76
19 77
19 78
19 79
19 80
19 86
19 87
19 88
19 90
19 92
19 103
19 407
19 450
19 467
19 487
19 701
20 21
20 22
20 23
20 24
20 25
20 26
20 27
20 28
20 29
20 30
20 31
20 34
20 35
20 36
20 37
20 38
20 39
20 42
20 61
20 131
20 265
21 22
21 23
21 24
21 25
21 26
21 27
21 28
21 29
21 30
21 31
21 34
21 35
21 36
21 37
21 38
21 39
21 40
21 42
21 132
21 192
22 23
22 24
22 25
22 26
22 27
22 28
22 29
22 30
22 31
22 34
22 35
22 36
22 37
22 38
22 39
22 42
22 61
23 24
23 25
23 26
23 27
23 28
23 29
23 30
23 31
23 34
23 35
23 36
23 37
23 38
23 39
23 42
23 61
23 132
23 358
24 25
24 26
24 27
24 28
24 29
24 30
24 31
24 34
24 35
24 36
24 37
24 38
24 39
24 42
24 61
25 26
25 27
25 28
25 29
25 30
25 31
25 34
25 35
25 36
25 37
25 38
25 39
25 42
25 61
26 27
26 28
26 29
26 30
26 31
26 34
26 35
26 36
26 37
26 38
26 39
26 42
26 61
26 423
27 28
27 29
27 30
27 31
27 34
27 35
27 36
27 37
27 38
27 39
27 42
27 61
28 29
28 30
28 31
28 34
28 35
28 36
28 37
28 38
28 39
28 42
28 61
29 30
29 31
29 34
29 35
29 36
29 37
29 38
29 39
29 42
29 61
30 31
30 34
30 35
30 36
30 37
30 38
30 39
30 42
30 61
31 34
31 35
31 36
31 37
31 38
31 39
31 42
31 61
32 73
32 108
32 128
32 135
32 141
32 149
32 163
32 167
32 182
32 222
32 242
32 247
32 262
32 267
32 271
32 387
32 557
32 725
32 731
32 892
33 93
33 104
33 107
33 108
33 115
33 128
33 135
33 161
33 177
33 204
33 227
33 239
33 272
33 280
33 296
33 307
33 355
33 399
33 474
33 493
33 510
33 516
33 554
33 564
33 589
33 590
33 597
33 598
33 627
33 628
33 641
33 664
33 680
33 732
33 790
33 795
33 796
33 937
33 942
34 35
34 36
34 37
34 38
34 39
34 42
34 61
35 36
35 37
35 38
35 39
35 42
35 61
36 37
36 38
36 39
36 42
36 61
37 38
37 39
37 42
37 61
38 39
38 61
39 42
39 61
40 112
40 132
40 143
40 144
40 156
40 185
40 192
40 199
40 209
40 210
40 231
40 265
40 283
40 286
40 343
40 761
40 797
41 43
41 44
41 45
41 46
41 47
41 48
41 49
41 50
41 51
41 52
41 53
41 54
41 55
41 56
41 57
41 58
41 59
41 60
41 62
41 63
41 64
41 65
41 67
41 69
41 70
41 71
41 72
41 74
41 75
41 76
41 77
41 78
41 79
41 80
41 86
41 87
41 88
41 90
41 92
41 103
41 279
43 44
43 45
43 46
43 47
43 48
43 49
43 50
43 51
43 52
43 53
43 54
43 55
43 56
43 57
43 58
43 59
43 60
43 62
43 63
43 64
43 65
43 67
43 69
43 70
43 71
43 72
43 74
43 75
43 76
43 77
43 78
43 79
43 80
43 86
43 87
43 88
43 90
43 92
43 103
44 45
44 46
44 47
44 48
44 49
44 50
44 51
44 52
44 53
44 54
44 55
44 56
44 57
44 58
44 59
44 60
44 62
44 63
44 64
44 65
44 67
44 69
44 70
44 71
44 72
44 74
44 75
44 76
44 77
44 78
44 79
44 80
44 86
44 87
44 88
44 90
44 92
44 103
45 46
45 47
45 48
45 49
45 50
45 51
45 52
45 53
45 54
45 55
45 56
45 57
45 58
45 59
45 60
45 62
45 63
45 64
45 65
45 67
45 69
45 70
45 71
45 72
45 74
45 75
45 76
45 77
45 78
45 79
45 80
45 86
45 87
45 88
45 90
45 92
45 103
46 47
46 48
46 49
46 50
46 51
46 52
46 53
46 54
46 55
46 56
46 57
46 58
46 59
46 60
46 62
46 63
46 64
46 65
46 67
46 69
46 70
46 71
46 72
46 74
46 75
46 76
46 77
46 78
46 79
46 80
46 86
46 87
46 88
46 90
46 92
46 103
47 48
47 49
47 50
47 51
47 52
47 53
47 54
47 55
47 56
47 57
47 58
47 59
47 60
47 62
47 63
47 64
47 65
47 67
47 69
47 70
47 71
47 72
47 74
47 75
47 76
47 77
47 78
47 79
47 80
47 86
47 87
47 88
47 90
47 92
47 103
48 49
48 50
48 51
48 52
48 53
48 54
48 55
48 56
48 57
48 58
48 59
48 60
48 62
48 63
48 64
48 65
48 67
48 69
48 70
48 71
48 72
48 74
48 75
48 76
48 77
48 78
48 79
48 80
48 86
48 87
48 88
48 90
48 92
48 103
49 50
49 51
49 52
49 53
49 54
49 55
49 56
49 57
49 58
49 59
49 60
49 62
49 63
49 64
49 65
49 67
49 69
49 70
49 71
49 72
49 74
49 75
49 76
49 77
49 78
49 79
49 80
49 86
49 87
49 88
49 90
49 92
49 103
50 51
50 52
50 53
50 54
50 55
50 56
50 57
50 58
50 59
50 60
50 62
50 63
50 64
50 65
50 67
50 69
50 70
50 71
50 72
50 74
50 75
50 76
50 77
50 78
50 79
50 80
50 86
50 87
50 88
50 90
50 92
50 103
51 52
51 53
51 54
51 55
51 56
51 57
51 58
51 59
51 60
51 62
51 63
51 64
51 65
51 67
51 69
51 70
51 71
51 72
51 74
51 75
51 76
51 77
51 78
51 79
51 80
51 86
51 87
51 88
51 90
51 92
51 103
52 53
52 54
52 55
52 56
52 57
52 58
52 59
52 60
52 62
52 63
52 64
52 65
52 67
52 69
52 70
52 71
52 72
52 74
52 75
52 76
52 77
52 78
52 79
52 80
52 86
52 87
52 88
52 90
52 92
52 103
53 54
53 55
53 56
53 57
53 58
53 59
53 60
53 62
53 63
53 64
53 65
53 67
53 69
53 70
53 71
53 72
53 74
53 75
53 76
53 77
53 78
53 79
53 80
53 86
53 87
53 88
53 90
53 92
53 103
54 55
54 56
54 57
54 58
54 59
54 60
54 62
54 63
54 64
54 65
54 67
54 69
54 70
54 71
54 72
54 74
54 75
54 76
54 77
54 78
54 79
54 80
54 86
54 87
54 88
54 90
54 92
54 103
55 56
55 57
55 58
55 59
55 60
55 62
55 63
55 64
55 65
55 67
55 69
55 70
55 71
55 72
55 74
55 75
55 76
55 77
55 78
55 79
55 80
55 86
55 87
55 88
55 90
55 92
55 103
56 57
56 58
56 59
56 60
56 62
56 63
56 64
56 65
56 67
56 69
56 70
56 71
56 72
56 74
56 75
56 76
56 77
56 78
56 79
56 80
56 86
56 87
56 88
56 90
56 92
56 103
57 58
57 59
57 60
57 62
57 63
57 64
57 65
57 67
57 69
57 70
57 71
57 72
57 74
57 75
57 76
57 77
57 78
57 79
57 80
57 86
57 87
57 88
57 90
57 92
57 103
58 59
58 60
58 62
58 63
58 64
58 65
58 67
58 69
58 70
58 71
58 72
58 74
58 75
58 76
58 77
58 78
58 79
58 80
58 86
58 87
58 88
58 90
58 92
58 103
59 60
59 62
59 63
59 64
59 65
59 67
59 69
59 70
59 71
59 72
59 74
59 75
59 76
59 77
59 78
59 79
59 80
59 86
59 87
59 88
59 90
59 92
59 103
60 62
60 63
60 64
60 65
60 67
60 69
60 70
60 71
60 72
60 74
60 75
60 76
60 77
60 78
60 79
60 80
60 86
60 87
60 88
60 90
60 92
60 103
62 63
62 64
62 65
62 67
62 69
62 70
62 71
62 72
62 74
62 75
62 76
62 77
62 78
62 79
62 80
62 86
62 87
62 88
62 90
62 92
63 64
63 65
63 67
63 69
63 70
63 71
63 72
63 74
63 75
63 76
63 77
63 78
63 79
63 80
63 86
63 87
63 88
63 90
63 92
64 65
64 67
64 69
64 70
64 71
64 72
64 74
64 75
64 76
64 77
64 78
64 79
64 80
64 86
64 87
64 88
64 90
64 92
65 67
65 70
65 72
65 75
65 76
65 77
65 78
65 79
65 80
65 103
65 230
65 299
65 650
65 710
65 737
66 83
66 89
66 91
66 94
66 98
66 100
66 105
66 117
66 123
66 136
66 137
66 159
66 175
66 178
66 179
66 180
66 181
66 183
66 184
66 187
66 190
66 193
66 197
66 208
66 216
66 275
66 390
66 559
66 778
66 814
66 816
67 70
67 72
67 75
67 76
67 77
67 78
67 79
67 80
67 93
67 103
67 339
67 450
68 117
68 172
68 196
68 313
68 326
68 392
68 457
68 535
68 566
68 592
68 689
69 71
69 74
69 86
69 87
69 88
69 90
69 92
69 154
69 157
69 631
70 72
70 75
70 76
70 77
70 78
70 79
70 80
70 103
71 74
71 86
71 87
71 88
71 90
71 92
71 154
71 372
71 381
72 75
72 76
72 77
72 78
72 79
72 80
72 103
73 84
73 143
73 162
73 170
73 181
73 198
73 201
73 255
73 260
73 268
73 282
73 309
73 311
73 324
73 325
73 350
73 371
73 423
73 424
73 566
73 592
73 834
73 838
73 874
73 929
73 936
74 86
74 87
74 88
74 90
74 92
74 270
74 631
75 76
75 77
75 78
75 79
75 80
76 77
76 78
76 79
76 80
77 78
77 79
77 80
78 79
78 80
79 80
81 171
81 204
82 96
82 165
82 194
82 268
82 288
82 315
82 321
82 337
82 352
82 356
82 387
82 407
82 412
82 447
82 451
82 488
82 530
82 562
82 583
82 612
82 663
82 670
82 714
82 716
82 770
82 804
82 809
82 830
82 831
82 869
82 881
82 887
82 896
83 89
83 98
83 100
83 101
83 117
83 123
83 136
83 137
83 159
83 175
83 178
83 179
83 180
83 183
83 184
83 187
83 190
83 256
83 261
83 272
83 370
83 373
83 374
83 384
83 408
83 509
83 532
83 534
83 604
83 667
83 823
84 111
84 126
84 149
84 152
84 167
84 172
84 189
84 196
84 200
84 260
84 282
84 287
84 325
84 344
84 350
84 354
84 424
84 482
84 558
84 720
84 844
84 954
85 113
85 273
85 417
85 420
85 427
85 496
85 602
86 87
86 88
86 90
86 92
87 88
87 90
87 92
88 90
88 92
89 91
89 94
89 98
89 100
89 117
89 123
89 136
89 137
89 145
89 159
89 175
89 178
89 179
89 180
89 183
89 184
89 187
89 190
90 92
91 94
91 98
91 105
91 114
91 117
91 129
91 143
91 193
91 197
91 220
91 232
91 485
91 553
91 630
93 103
93 133
93 134
93 271
93 337
93 339
93 349
93 394
93 416
93 450
93 456
93 478
93 554
93 636
93 691
93 701
93 893
94 105
94 108
94 110
94 117
94 225
94 232
94 414
94 596
94 675
95 99
95 106
95 112
95 122
95 131
95 144
95 197
95 229
95 234
95 238
95 781
96 120
96 125
96 134
96 207
96 226
96 244
96 273
96 379
96 384
96 405
96 417
96 470
96 517
96 565
96 582
96 658
96 662
96 702
96 706
96 762
96 775
97 111
97 134
97 181
97 188
97 193
97 194
97 242
97 294
97 332
97 353
97 388
97 460
97 494
97 519
97 537
97 561
97 611
97 676
97 730
97 784
97 815
98 100
98 114
98 117
98 123
98 136
98 137
98 159
98 175
98 178
98 179
98 180
98 183
98 184
98 187
98 190
98 200
98 290
98 498
98 621
98 781
98 890
99 106
99 122
99 131
99 145
99 208
99 229
99 265
99 473
99 492
99 548
100 105
100 112
100 117
100 123
100 136
100 137
100 148
100 159
100 175
100 178
100 179
100 180
100 183
100 184
100 187
100 190
100 197
100 208
100 305
101 121
101 123
101 124
101 130
101 152
101 165
101 256
101 289
101 368
101 440
101 455
101 520
101 688
101 694
101 826
101 955
102 128
102 134
102 139
102 146
102 239
102 308
102 328
102 492
102 513
102 568
102 898
102 976
103 339
103 450
104 147
104 280
104 298
104 307
104 318
104 524
104 572
104 614
104 641
104 656
104 665
104 969
105 108
105 137
105 147
105 232
105 390
105 778
106 122
106 131
106 144
106 229
106 234
106 668
107 139
107 161
107 177
107 239
107 285
107 296
107 303
107 346
107 445
107 459
107 471
107 516
107 796
108 110
108 111
108 128
108 135
108 149
108 259
108 686
109 150
109 284
109 297
109 365
109 366
109 378
109 380
109 687
109 694
110 136
110 141
110 149
110 168
110 247
110 262
110 266
110 375
111 126
111 128
111 154
111 157
111 165
111 195
111 218
111 242
111 292
111 324
111 523
111 528
111 537
111 677
111 738
111 752
111 934
112 135
112 144
112 148
112 208
112 238
112 265
112 305
112 463
112 646
112 900
113 115
113 153
113 245
113 250
113 383
113 420
113 427
113 470
113 602
113 709
114 117
114 132
114 148
114 193
114 255
114 362
114 363
114 391
114 586
115 186
115 251
115 299
115 510
115 515
115 570
115 609
115 642
115 678
115 699
115 768
115 793
115 813
116 162
116 170
116 198
116 213
116 216
116 326
116 330
116 331
116 364
116 539
116 540
116 605
116 894
117 123
117 136
117 137
117 159
117 175
117 178
117 179
117 180
117 183
117 184
117 187
117 190
117 193
117 392
118 143
118 156
118 160
118 172
118 177
118 191
118 217
118 269
118 277
118 333
118 342
118 358
118 365
118 366
118 396
118 436
118 949
119 139
119 249
119 281
119 331
119 397
119 400
119 441
119 453
119 645
119 698
119 734
120 221
120 223
120 235
120 236
120 237
120 241
120 379
120 417
120 427
120 721
120 757
120 866
120 867
121 152
121 319
121 320
121 385
121 440
121 455
121 495
121 520
121 906
121 908
122 131
122 145
122 185
122 192
122 199
122 265
123 136
123 137
123 159
123 175
123 178
123 179
123 180
123 183
123 184
123 187
123 190
123 256
124 138
124 165
124 259
124 336
124 357
124 377
124 388
124 595
124 666
125 135
125 226
125 278
125 288
125 317
125 405
125 444
125 482
125 582
125 766
125 853
126 157
126 162
126 309
126 324
126 354
126 376
126 433
126 503
126 613
126 623
126 681
126 696
126 738
126 752
126 819
126 928
127 430
127 477
128 134
128 135
128 146
128 161
128 218
128 304
128 387
128 597
128 680
128 876
128 923
128 973
129 143
129 145
129 173
129 257
129 269
129 443
129 625
129 971
129 987
130 165
130 171
130 204
130 224
130 240
130 289
130 290
130 430
130 460
130 513
131 163
131 229
131 234
131 265
132 185
132 192
132 343
132 358
132 761
133 134
133 146
133 318
133 542
133 610
133 651
133 862
133 903
134 146
134 207
134 218
134 304
134 308
134 775
134 898
135 200
135 225
135 288
135 317
135 497
135 646
135 724
135 753
135 850
136 137
136 141
136 159
136 168
136 175
136 178
136 179
136 180
136 183
136 184
136 187
136 190
137 159
137 175
137 178
137 179
137 180
137 183
137 184
137 187
137 190
137 197
137 216
137 608
138 255
138 442
139 239
139 280
139 300
139 328
139 355
139 568
139 578
139 627
140 143
140 150
140 166
140 243
140 269
140 293
140 323
140 336
140 350
140 357
140 395
140 438
140 475
140 505
140 599
140 748
140 859
141 149
141 167
141 168
141 262
141 271
141 344
141 345
141 725
142 188
142 233
142 419
142 425
142 556
142 575
142 635
143 150
143 156
143 194
143 254
143 268
143 283
143 293
143 309
143 312
143 333
143 365
143 385
143 392
143 525
143 566
144 208
144 256
144 265
144 368
144 463
145 166
145 169
145 229
145 382
145 555
145 855
146 171
146 304
146 308
146 339
146 387
146 876
147 161
147 276
147 338
147 367
147 457
147 601
148 193
148 204
148 208
148 261
148 305
148 362
148 363
148 391
149 163
149 182
149 189
149 222
149 247
149 262
149 344
149 345
149 454
149 655
149 686
149 739
150 158
150 201
150 238
150 318
150 504
150 525
150 549
150 566
150 574
150 579
151 219
151 248
151 301
151 398
151 401
151 466
151 501
151 502
151 559
151 580
151 783
152 385
152 495
152 558
152 721
152 743
153 245
153 274
153 469
153 538
153 746
154 157
154 158
154 226
154 242
154 267
154 272
154 372
154 381
154 393
154 523
154 564
154 688
154 750
154 828
154 848
154 863
155 348
155 351
155 812
156 283
156 333
156 342
156 358
156 365
156 588
157 218
157 247
157 292
157 324
157 523
157 528
157 672
157 677
157 752
157 788
157 957
158 215
158 372
158 381
158 508
158 525
158 818
159 175
159 178
159 179
159 180
159 183
159 184
159 187
159 190
159 208
160 210
160 269
160 358
160 385
160 396
160 452
160 458
160 479
161 204
161 224
161 267
161 276
161 338
161 471
161 497
161 589
161 597
161 628
161 680
162 170
162 198
162 225
162 364
162 369
162 371
162 472
162 539
162 540
162 726
162 799
163 189
163 271
163 345
163 454
163 557
164 368
165 171
165 194
165 259
165 270
165 290
165 317
165 377
165 407
165 432
165 447
165 488
165 826
166 169
166 243
166 312
166 323
166 382
166 395
166 429
166 555
166 599
166 918
167 344
167 416
167 686
168 222
168 262
168 271
169 174
169 272
169 276
169 301
169 334
169 382
169 398
169 426
169 555
169 587
169 690
169 872
169 886
169 927
169 953
170 198
170 282
170 364
170 371
170 423
170 424
170 519
170 539
170 540
170 569
170 884
170 961
171 204
171 240
171 289
171 290
171 430
171 513
172 217
172 313
172 614
173 250
173 335
173 347
173 448
173 481
173 486
174 201
174 276
174 301
174 310
174 334
174 426
174 462
174 467
174 502
174 576
174 587
174 649
174 674
174 690
174 729
174 963
175 178
175 179
175 180
175 183
175 184
175 187
175 190
176 361
176 437
176 792
177 239
177 346
177 355
177 366
177 516
177 567
178 179
178 180
178 183
178 184
178 187
178 190
179 180
179 183
179 184
179 187
179 190
180 183
180 184
180 187
180 190
181 255
181 260
181 275
181 282
181 325
181 466
181 676
181 888
182 314
182 739
183 184
183 187
183 190
184 187
184 190
185 192
185 199
185 213
185 248
185 327
185 343
186 299
186 570
186 615
186 633
186 642
186 699
186 769
187 190
188 233
188 242
188 332
188 419
188 425
188 635
189 200
189 260
189 353
189 423
189 447
189 454
189 506
189 521
189 529
189 537
189 558
189 825
191 257
191 278
191 317
191 586
191 665
191 779
192 199
192 343
193 197
193 216
193 362
193 363
193 391
193 814
193 823
194 198
194 294
194 306
194 357
194 442
194 449
194 763
194 875
194 964
195 230
195 292
195 304
195 308
195 465
195 571
195 822
195 902
195 934
196 325
196 389
196 464
196 679
197 216
197 220
197 238
197 305
197 485
197 608
198 364
198 371
198 539
198 540
199 210
199 343
200 249
200 270
200 279
200 397
200 482
200 498
200 621
200 911
201 268
201 309
201 345
201 431
201 504
201 593
201 711
201 907
201 919
201 958
201 975
201 979
201 996
202 281
202 306
202 328
202 801
203 205
203 212
203 329
203 386
203 404
203 415
203 434
203 522
203 584
203 683
204 289
204 476
204 554
204 628
205 212
205 404
205 415
205 434
205 522
205 584
205 683
206 285
206 323
206 351
206 459
206 499
206 877
207 226
207 227
207 399
207 405
207 719
207 742
207 762
207 764
207 775
207 854
208 265
208 305
209 231
209 286
210 343
210 452
210 458
210 479
211 321
211 383
211 417
211 940
211 959
212 329
212 386
212 404
212 415
212 434
212 584
212 683
213 327
213 551
213 605
213 894
214 354
214 379
214 411
214 489
214 507
214 536
214 820
215 224
215 508
216 247
216 326
216 393
216 436
216 608
216 619
217 313
217 511
218 259
218 292
218 304
218 340
218 523
218 528
219 248
219 401
219 502
219 531
219 803
219 851
219 899
220 266
220 485
220 553
220 630
221 223
221 235
221 236
221 237
221 241
222 267
222 344
222 557
222 655
223 235
223 236
223 237
223 241
224 267
224 338
224 508
225 330
225 666
225 880
226 259
226 273
226 281
226 288
226 336
226 372
226 526
226 541
226 762
226 853
227 399
227 403
227 493
227 546
227 590
228 319
228 331
228 789
228 818
229 234
229 297
229 855
230 355
230 367
230 577
230 650
230 710
230 822
231 286
232 777
233 332
233 460
233 556
233 610
234 256
234 378
235 236
235 237
235 241
236 237
236 241
237 241
238 257
238 360
238 457
238 547
238 549
238 781
239 303
239 355
239 516
239 568
239 627
240 356
240 402
240 405
240 526
240 926
242 262
242 267
242 271
242 332
243 312
243 323
243 395
243 594
243 599
244 245
244 273
244 274
244 538
244 606
244 624
244 827
244 845
245 250
245 300
245 328
245 538
245 606
246 392
247 262
247 345
247 416
247 931
248 276
248 302
249 356
249 394
249 397
249 402
249 441
249 453
249 498
249 530
249 573
250 300
250 448
250 657
250 722
251 324
251 741
251 832
252 469
252 512
253 400
253 591
253 637
253 697
253 718
254 258
254 301
254 311
254 312
254 329
254 386
254 398
254 545
254 580
254 873
255 338
255 431
255 466
256 722
257 269
257 527
257 720
257 814
258 260
258 472
258 480
258 925
258 951
259 377
259 442
259 666
259 856
259 965
260 447
260 454
260 480
260 728
260 825
261 318
261 620
261 653
261 657
261 823
261 990
262 725
263 291
263 315
263 552
263 682
263 774
263 810
264 380
264 685
266 375
267 497
268 282
268 309
268 385
268 423
268 424
268 451
268 938
268 981
269 899
270 290
270 826
270 829
270 911
271 557
272 451
272 509
272 564
272 631
272 744
272 750
272 828
272 885
273 427
273 952
274 624
274 827
274 845
275 390
275 449
276 334
276 338
276 502
276 690
277 333
277 842
278 317
278 330
278 665
278 864
278 960
279 295
279 514
279 840
280 428
280 578
280 805
281 541
281 801
281 841
282 309
282 325
282 350
282 424
282 472
282 550
282 808
283 797
284 366
284 378
284 849
285 323
285 459
285 471
285 499
285 984
287 294
287 295
287 339
287 444
287 462
287 843
288 352
288 482
288 526
288 646
288 724
288 753
288 766
288 850
289 332
289 476
290 460
290 476
290 661
290 904
290 978
291 315
291 552
291 659
291 682
291 700
291 705
292 308
292 340
292 523
292 528
292 677
293 347
293 350
293 357
293 424
293 438
293 475
293 491
293 547
294 295
294 442
294 449
294 763
295 756
295 891
296 516
296 598
297 337
297 511
297 612
297 733
297 772
297 871
297 970
298 704
299 435
299 570
299 737
301 334
301 398
301 426
301 545
301 559
301 587
302 361
302 422
302 437
303 409
303 474
303 554
303 607
304 852
304 913
306 488
306 606
306 663
306 770
306 901
307 524
307 572
307 664
309 376
309 385
309 423
309 424
309 623
310 390
310 462
310 522
310 729
310 916
311 331
311 444
311 454
311 537
311 566
311 791
311 873
311 889
311 974
312 409
312 708
312 868
313 535
313 997
314 322
314 484
314 944
315 488
315 552
315 659
315 677
315 682
315 700
315 705
316 330
316 496
316 500
316 638
316 870
317 405
317 444
318 384
318 574
318 653
318 962
319 320
319 385
319 495
319 581
319 818
320 495
320 581
321 383
321 640
321 663
321 749
321 751
321 809
322 360
322 463
323 395
323 599
323 909
325 679
325 817
325 824
326 704
326 736
326 883
327 570
327 915
328 568
329 386
329 426
330 864
330 870
331 779
331 889
332 460
332 815
333 365
333 842
334 426
334 587
334 690
334 927
335 440
335 481
335 486
336 377
336 505
336 748
337 394
337 487
337 612
337 636
337 847
337 914
337 998
338 367
339 450
339 680
339 701
340 461
340 617
341 719
341 776
342 358
344 345
344 655
345 931
346 567
346 786
347 438
347 486
347 547
347 816
348 741
349 456
349 478
349 691
350 357
350 475
351 499
351 743
352 356
352 407
352 693
352 702
352 723
352 727
352 755
352 806
353 494
353 521
353 529
353 569
354 411
354 433
354 489
354 536
355 367
355 578
355 598
356 412
356 530
356 573
356 702
356 896
356 926
357 442
357 475
357 595
357 639
359 527
359 745
359 747
359 771
359 794
359 835
359 846
361 422
361 437
362 363
362 391
363 391
364 371
364 539
364 540
365 745
365 836
366 378
369 461
369 707
369 726
369 760
369 799
370 384
370 408
370 418
370 483
370 585
370 667
371 519
371 537
372 381
372 393
372 688
372 988
373 374
373 446
373 532
373 534
373 604
373 643
373 647
373 673
374 446
374 532
374 534
374 604
374 643
374 647
374 673
376 623
376 712
376 767
376 819
376 928
376 967
377 595
377 802
378 849
379 417
379 435
381 497
382 429
382 555
383 470
384 408
384 667
384 930
384 968
384 986
385 495
385 581
386 426
387 465
387 560
387 573
387 684
387 770
388 514
388 600
388 611
388 759
388 782
389 419
389 425
389 464
390 729
390 778
392 586
392 776
393 480
393 688
394 397
394 402
394 441
394 453
394 914
395 396
395 599
397 402
397 441
397 453
398 421
398 501
398 545
398 715
398 811
399 420
399 493
399 602
400 583
400 591
400 645
400 698
400 718
401 530
401 531
401 803
401 851
402 405
402 441
402 453
403 468
403 493
404 415
404 434
405 702
406 515
407 467
407 487
407 727
407 806
408 418
408 483
408 585
408 667
409 474
409 607
409 878
410 421
410 920
411 489
411 536
412 518
412 530
412 780
412 787
412 857
413 503
413 807
414 675
415 434
417 427
418 585
419 425
419 575
420 427
420 602
420 709
421 715
421 811
422 437
423 469
423 879
424 882
425 575
426 587
428 546
428 805
429 912
430 477
431 504
431 593
431 711
432 661
433 983
438 547
438 859
438 993
439 465
439 488
439 622
440 481
441 453
442 875
443 500
443 543
443 648
443 654
444 671
444 791
445 792
446 571
446 643
446 673
447 573
447 825
449 712
449 763
449 992
450 490
450 701
451 885
451 935
451 982
451 999
452 458
452 479
454 791
455 520
455 579
455 616
456 478
457 601
458 479
459 471
459 499
460 815
461 617
462 522
462 916
463 865
464 575
465 560
465 684
466 580
467 487
467 576
467 649
467 674
469 838
470 565
470 662
472 550
472 808
473 492
473 548
474 607
475 932
476 661
476 904
480 925
482 498
482 766
482 844
483 585
487 644
488 622
488 901
489 536
489 820
490 562
490 695
490 880
490 891
492 548
493 510
494 521
494 529
494 569
495 535
496 582
496 638
498 621
500 543
500 648
500 654
501 559
501 574
501 580
501 783
503 613
503 681
503 696
504 593
504 711
505 748
507 821
509 626
509 634
509 652
509 660
510 554
510 732
510 790
511 947
511 948
512 594
513 754
513 758
513 798
514 600
514 617
514 840
515 678
517 735
520 946
521 529
523 528
524 563
524 572
524 618
524 765
527 720
527 728
527 985
530 573
531 689
531 803
532 534
532 604
532 647
533 581
533 773
533 860
533 991
534 604
534 647
536 820
538 606
538 746
539 540
542 610
542 651
542 903
543 648
543 654
543 941
544 577
544 629
544 714
544 785
545 905
546 590
550 808
551 605
553 560
553 630
560 684
560 917
561 784
561 789
562 695
562 830
563 618
563 765
564 750
564 828
565 658
565 706
567 786
568 627
569 884
576 649
576 674
577 714
577 785
579 593
579 616
579 837
580 783
581 860
582 638
583 591
583 670
583 716
588 939
589 597
589 628
589 695
591 718
593 711
595 802
598 609
600 759
600 782
603 678
603 861
609 921
611 730
612 772
612 804
613 681
613 696
615 633
616 922
618 664
618 765
620 653
620 657
623 692
624 827
626 634
626 652
626 660
629 717
631 744
632 800
632 839
634 652
634 660
636 847
637 697
640 749
640 751
642 699
642 769
643 673
644 945
645 698
648 654
649 674
650 710
651 862
652 660
655 950
656 665
656 943
657 722
658 706
659 700
659 705
663 809
664 795
669 670
669 733
669 989
670 716
671 910
672 788
676 888
676 956
678 861
681 696
684 917
693 723
693 755
694 906
699 769
700 705
703 839
707 760
708 868
712 767
713 795
714 785
715 811
719 742
721 757
723 755
724 753
726 799
727 806
732 790
736 740
740 924
744 972
745 836
747 771
747 794
749 751
754 758
754 798
756 833
758 798
759 782
764 854
768 813
771 794
774 810
780 787
804 881
812 858
817 824
831 980
834 874
835 846
848 863
852 913
858 977
866 867
869 887
871 933
872 886
882 966
893 897
895 932
900 930
907 919
920 994
929 995
